6 6 1.0
6 1 3 1 1 1 3 1 2 6 1 4 7 1 6 3 1 5 6 
6 1 2 8 1 3 5 1 5 10 1 6 10 1 1 10 1 4 4 
6 1 3 5 1 4 4 1 6 8 1 1 9 1 2 1 1 5 7 
6 1 2 5 1 1 5 1 3 5 1 4 3 1 5 8 1 6 9 
6 1 3 9 1 2 3 1 5 5 1 6 4 1 1 3 1 4 1 
6 1 2 3 1 4 3 1 6 9 1 1 10 1 5 4 1 3 1 
2 1 7 13 4 25 35 
2 8 2 11 3 15 24 
2 1 3 10 7 14 25 
2 3 3 8 1 13 20 
2 2 7 13 2 25 35 
2 2 7 15 8 28 38 
